c description: Random 3-CNF over 19 variables and 81 clauses
c generator: CNFgen (0.9.2)
c copyright: (C) 2012-2022 Massimo Lauria <massimo.lauria@uniroma1.it>
c url: https://massimolauria.net/cnfgen
c command line: cnfgen --output CNF_4.28/19_bit_81_394.cnf randkcnf 3 19 81
c
p cnf 19 81
2 17 -18 0
3 7 9 0
-7 10 18 0
-6 8 -16 0
1 3 -6 0
6 14 15 0
3 -10 -11 0
-11 13 -19 0
-2 7 10 0
-4 7 10 0
9 12 -19 0
-2 -4 13 0
-8 9 -12 0
4 13 -15 0
9 11 -13 0
-3 -11 16 0
-4 5 8 0
1 -5 -6 0
3 -6 13 0
-4 -5 7 0
8 11 -13 0
3 4 -13 0
-9 10 13 0
-2 -5 -11 0
-3 5 9 0
3 -4 19 0
-10 16 -19 0
2 -4 -10 0
-4 13 18 0
4 12 14 0
-10 -16 -18 0
6 10 -11 0
5 -11 16 0
-6 -11 -12 0
4 13 15 0
-2 -7 19 0
-2 9 18 0
-5 15 -18 0
-1 5 11 0
1 -4 -17 0
1 -3 -19 0
9 -16 17 0
6 15 -16 0
-12 -14 15 0
4 10 -16 0
-4 -9 -10 0
-3 -8 10 0
12 -17 -18 0
-4 15 -16 0
-9 -17 18 0
1 5 6 0
2 -11 -12 0
-1 -5 12 0
-3 -13 -19 0
1 2 -16 0
7 -14 -16 0
8 -9 -14 0
7 -11 -13 0
-4 -9 17 0
-1 10 -14 0
-4 -5 -10 0
-3 -8 -12 0
3 -13 -19 0
2 -3 -17 0
6 13 19 0
-3 6 10 0
-6 16 18 0
-5 10 -11 0
3 17 19 0
-2 4 17 0
2 5 -8 0
11 -13 16 0
-3 8 -9 0
12 15 18 0
12 15 16 0
6 -7 14 0
4 8 18 0
7 -14 -19 0
7 8 -11 0
-11 -15 19 0
13 -15 -18 0
